3729 14809
25088 30384
18810 65230
22592 5844
16181 51690
11974 10401
25333 40468
11794 43617
62036 1991
46264 23506
48490 22668
41174 58924
29293 45378
2257 29582
64222 31537
46889 18845
11470 4653
15060 34941
51491 13411
41164 50296
23915 64377
13772 12575
